Anatase 101 face                        
   1.00000000000000     
    11.2745993599999998   -0.0005546100000000    0.0302553450000000
    -0.0004014750000000   22.2816373399999996    0.0063771750000000
    -3.7926568700000001    3.7664259499999999    9.7022844500000005
   O    Ti  
    72    36  
Selective dynamics
Direct
  0.2738614094381596  0.2836787893107174  0.3186710493006777   T   T   T
  0.4107354958134787  0.2104130073403828  0.7306765679218862   T   T   T
  0.3591355103921935  0.3226651970977518  0.0719817603970686   T   T   T
  0.6084471194597364  0.2818783336667181  0.3204965769910706   T   T   T
  0.4963085372617202  0.2527422390293549  0.4835202929320300   T   T   T
  0.0772405018280587  0.2084919025801223  0.7332594387548279   T   T   T
  0.0251087341435601  0.3225409818737914  0.0720595628538448   T   T   T
  0.1619143779045091  0.2524583633105245  0.4835618746532514   T   T   T
  0.4959472775879913  0.0692880269913325  0.9850035876388765   T   T   T
  0.4960705912311349  0.2495623565298070  0.9847025685679933   T   T   T
  0.2735252257105957  0.1079338476384077  0.3180176941300156   T   T   T
  0.3592393970448539  0.3243173343759351  0.5721584464592420   T   T   T
  0.4025465755517437  0.0436979218879486  0.7194243720597864   T   T   T
  0.2745423277820405  0.2829206710888114  0.8213088368499791   T   T   T
  0.3539844200543841  0.1517483071644185  0.0663748878015094   T   T   T
  0.4076346264028248  0.0362923588738689  0.2199773444854225   T   T   T
  0.6071982897005658  0.1068946014878022  0.3184305954136554   T   T   T
  0.4960852205667970  0.0683649347646403  0.4864638905042218   T   T   T
  0.0253884763808974  0.3234077252940592  0.5726583961526499   T   T   T
  0.0786108793188814  0.0367194140413971  0.7183491587765194   T   T   T
  0.6082228654127477  0.2829098650959966  0.8211738068354323   T   T   T
  0.3557261371122283  0.1563772086244549  0.5588668580732830   T   T   T
  0.2726004385242737  0.1115332523451568  0.8191647107951785   T   T   T
  0.4128134512632268  0.2079031671956302  0.2340585878252077   T   T   T
  0.0220221760669636  0.1526740449454778  0.5648926718651057   T   T   T
  0.6078707138567603  0.1100823835733032  0.8184450869681702   T   T   T
  0.1629906150355784  0.0647194644672630  0.9858567956962347   T   T   T
  0.1627419672173904  0.2498262857044440  0.9851405098926108   T   T   T
  0.0222846100902535  0.1514019019878468  0.0636537971155313   T   T   T
  0.0746500516762831  0.0360355180910695  0.2196016899632206   T   T   T
  0.1634750523726987  0.0682206164174776  0.4852527297486148   T   T   T
  0.0785884156631746  0.2076111682385156  0.2332761148070774   T   T   T
  0.2731004212499997  0.4518231859889994  0.3161010714970018   F   F   F
  0.4105285797339988  0.3835306567420034  0.7301529832460005   F   F   F
  0.3569037735000009  0.4948315433730031  0.0661509362934964   F   F   F
  0.6064270156269984  0.4517923595349984  0.3161463415849965   F   F   F
  0.4946907463699972  0.4265633249749996  0.4801725336170009   F   F   F
  0.0773561040250996  0.3835540866620022  0.7301399784309979   F   F   F
  0.0237649213171025  0.4948191499750010  0.0660704285261033   F   F   F
  0.1613796376669967  0.4264595000880007  0.4801936772970024   F   F   F
  0.4946486425839964  0.4247716172169973  0.9802106361170004   F   F   F
  0.3571874344349979  0.4957220839989986  0.5661685566499983   F   F   F
  0.2730477199829977  0.4536975719059981  0.8161388919509989   F   F   F
  0.0237189963009996  0.4957321029540012  0.5661352632380030   F   F   F
  0.6063610444309973  0.4536118409969987  0.8161865268769972   F   F   F
  0.4106706273700027  0.3826322082540017  0.2301260278379971   F   F   F
  0.1613234693399974  0.4245320272139992  0.9802370928370010   F   F   F
  0.0772593942586965  0.3826146863889974  0.2301524067829988   F   F   F
  0.9408871772647590  0.2817343890246993  0.3204861657742384   T   T   T
  0.7461457091565394  0.2083429091473419  0.7334236265526617   T   T   T
  0.6921774449034874  0.3224373629537539  0.0723863998685564   T   T   T
  0.8293662012039299  0.2513494439104347  0.4844473061481607   T   T   T
  0.9408708055484475  0.1070104463559418  0.3183200032309221   T   T   T
  0.9414583481858260  0.2828431743104028  0.8213282684325767   T   T   T
  0.6929049437566610  0.3233804826713927  0.5728070062553793   T   T   T
  0.7364511232590587  0.0366064691255940  0.7179441630876978   T   T   T
  0.9402463740685296  0.1065921453140478  0.8179516255698908   T   T   T
  0.6910498619508941  0.1527208598084718  0.5648851077770908   T   T   T
  0.8295711431155547  0.0648085009974851  0.9855117263209531   T   T   T
  0.8295436458989263  0.2498955232855010  0.9850343719298815   T   T   T
  0.6924489946728557  0.1516925265986771  0.0655273236990092   T   T   T
  0.7407585534584914  0.0361213267931898  0.2194213510175959   T   T   T
  0.8304359575528181  0.0666828816958897  0.4866733709766448   T   T   T
  0.7454197552133486  0.2074487297487903  0.2339788665667321   T   T   T
  0.9397995111829971  0.4520447732359969  0.3161032330719991   F   F   F
  0.7440553148559985  0.3835040019090030  0.7302876060100019   F   F   F
  0.6903189659060018  0.4947898575310035  0.0663244394280014   F   F   F
  0.8280170257299986  0.4263387407239989  0.4802879696090017   F   F   F
  0.9397051240160010  0.4536652266870007  0.8161484008879967   F   F   F
  0.6903599098150011  0.4956968618979971  0.5662245303189977   F   F   F
  0.8279469415150018  0.4246553433319988  0.9802956614719989   F   F   F
  0.7443794384980009  0.3825834195120024  0.2303581264160002   F   F   F
  0.4274184776844008  0.2867566215148725  0.7779166421951917   T   T   T
  0.4279167390657940  0.2851331348314295  0.2765736135410773   T   T   T
  0.0109955671497173  0.2474341411152618  0.5316628441941937   T   T   T
  0.0935902932181009  0.2851600729476600  0.7774276194484161   T   T   T
  0.0925851702510031  0.2851047899921241  0.2760831006961078   T   T   T
  0.3439098950805324  0.0811171700102909  0.5291072568536317   T   T   T
  0.4264936004828698  0.1137660274696184  0.7776666869461510   T   T   T
  0.3434124890716041  0.0777733922095410  0.0309108826322712   T   T   T
  0.4269246211646063  0.1065162828476812  0.2777095752636159   T   T   T
  0.0113342701492304  0.0789675103040146  0.5290380298410182   T   T   T
  0.0940398176093992  0.1067705686239943  0.7774269268149189   T   T   T
  0.3445028763741435  0.2465440554754561  0.0319183978837138   T   T   T
  0.0111210518858503  0.0768160250373285  0.0302717104368229   T   T   T
  0.0934635206626006  0.1067176283579170  0.2761463841894392   T   T   T
  0.0114870893085789  0.2462315783161755  0.0319423055693839   T   T   T
  0.3428141041914761  0.2495835003903800  0.5260814647005893   T   T   T
  0.4257381159410016  0.4607029803060030  0.7731145385140010   F   F   F
  0.4257705556689970  0.4600927738740026  0.2731024877050032   F   F   F
  0.0086833928712124  0.4182984554480029  0.5231744606089990   F   F   F
  0.0924025437356022  0.4606904907180009  0.7731531006780017   F   F   F
  0.0924514940994996  0.4600837977669983  0.2730759921239994   F   F   F
  0.3419626778149976  0.4176621105799967  0.0232159228887028   F   F   F
  0.0086046648685283  0.4176454949270010  0.0231909524139979   F   F   F
  0.3420076886149985  0.4182751976560013  0.5232011055449988   F   F   F
  0.6784780641792706  0.2474793813727177  0.5316647146809215   T   T   T
  0.7606897252571474  0.2851073146368980  0.7776192865593308   T   T   T
  0.7603258880912673  0.2848532048107848  0.2767357514800187   T   T   T
  0.6774734288427633  0.0791614796313185  0.5286630132741976   T   T   T
  0.7597789379782461  0.1066086705524015  0.7773613564336304   T   T   T
  0.6787506691408551  0.0777190510925240  0.0303166405621384   T   T   T
  0.7607801890786733  0.1062304031114418  0.2776019466755299   T   T   T
  0.6784045236711329  0.2464793366846139  0.0319953295491033   T   T   T
  0.6753200941730029  0.4182509577140010  0.5232588098480022   F   F   F
  0.7590319687320033  0.4606634258390017  0.7731839130049991   F   F   F
  0.7591293798029994  0.4600606665710032  0.2732191669700015   F   F   F
  0.6753138120700015  0.4176306462300019  0.0233391425681972   F   F   F